* ENCODING=ISO-8859-1
NAME          CPLEX
ROWS
 N  obj1    
 G  c1      
 G  c2      
 G  c3      
 G  c4      
 G  c5      
 G  c6      
 G  c7      
 G  c8      
 G  c9      
 G  c10     
 G  c11     
 G  c12     
 G  c13     
 G  c14     
 G  c15     
 G  c16     
 G  c17     
 G  c18     
 G  c19     
 G  c20     
 G  c21     
 G  c22     
 G  c23     
 G  c24     
 G  c25     
COLUMNS
    MARK0000  'MARKER'                 'INTORG'
    x1        obj1                            1
    x1        c2                            679
    x1        c11                           185
    x1        c19                           674
    x1        c24                           259
    x2        obj1                            1
    x3        obj1                            1
    x3        c6                            290
    x3        c20                           890
    x3        c23                           205
    x4        obj1                            1
    x4        c2                            728
    x4        c8                            582
    x4        c10                           450
    x4        c12                           187
    x5        obj1                            1
    x5        c3                            210
    x5        c7                            325
    x5        c17                           151
    x6        obj1                            1
    x6        c3                            709
    x6        c15                           681
    x7        obj1                            1
    x7        c2                            768
    x7        c7                            715
    x8        obj1                            1
    x8        c5                            658
    x8        c14                           148
    x8        c18                           125
    x9        obj1                            1
    x9        c1                            324
    x9        c3                            581
    x9        c19                           264
    x9        c23                           459
    x10       obj1                            1
    x11       obj1                            1
    x11       c23                           225
    x12       obj1                            1
    x12       c8                            634
    x12       c13                           391
    x13       obj1                            1
    x13       c4                            291
    x13       c16                           646
    x13       c18                           419
    x14       obj1                            1
    x14       c19                           622
    x15       obj1                            1
    x15       c4                            979
    x15       c25                           761
    x16       obj1                            1
    x16       c7                            435
    x16       c12                           762
    x17       obj1                            1
    x17       c1                            273
    x17       c7                            119
    x18       obj1                            1
    x18       c21                           236
    x19       obj1                            1
    x19       c1                            325
    x19       c3                            832
    x19       c8                            834
    x19       c20                           740
    x19       c24                           394
    x20       obj1                            1
    x20       c2                            574
    x20       c11                           136
    x20       c17                           432
    x20       c20                           873
    x21       obj1                            1
    x21       c9                            373
    x21       c16                           829
    x22       obj1                            1
    x22       c22                           598
    x23       obj1                            1
    x23       c9                            427
    x23       c15                           586
    x23       c20                           336
    x23       c23                           246
    x24       obj1                            1
    x24       c5                            268
    x24       c23                           363
    x25       obj1                            1
    x25       c18                           356
    x25       c24                           640
    x25       c25                           668
    x26       obj1                            1
    x26       c5                            371
    x26       c10                           808
    x26       c12                           321
    x26       c14                           428
    x26       c21                           173
    x26       c23                           799
    x26       c24                           380
    x27       obj1                            1
    x28       obj1                            1
    x28       c25                           166
    x29       obj1                            1
    x29       c1                            260
    x29       c3                            663
    x29       c7                            394
    x29       c16                           320
    x30       obj1                            1
    x30       c3                            474
    x30       c12                           122
    x31       obj1                            1
    x31       c21                           578
    x32       obj1                            1
    x32       c2                            681
    x33       obj1                            1
    x34       obj1                            1
    x34       c11                           126
    x34       c17                           935
    x35       obj1                            1
    x35       c8                            639
    x36       obj1                            1
    x36       c12                           643
    x36       c14                           571
    x36       c15                           918
    x36       c21                           172
    x37       obj1                            1
    x37       c1                            459
    x37       c3                            149
    x37       c12                           951
    x37       c13                           611
    x37       c20                           588
    x38       obj1                            1
    x38       c5                            268
    x38       c6                            329
    x38       c21                           573
    x38       c22                           291
    x38       c24                           764
    x39       obj1                            1
    x39       c5                            862
    x40       obj1                            1
    x40       c4                            480
    x41       obj1                            1
    x41       c6                            191
    x42       obj1                            1
    x42       c10                           616
    x42       c20                           164
    x43       obj1                            1
    x44       obj1                            1
    x45       obj1                            1
    x46       obj1                            1
    x46       c5                            150
    x46       c13                           839
    x47       obj1                            1
    x47       c15                           701
    x48       obj1                            1
    x48       c21                           461
    x48       c23                           739
    x48       c25                           259
    x49       obj1                            1
    x49       c5                            121
    x49       c20                           480
    x49       c22                           158
    x50       obj1                            1
    x50       c1                            457
    x50       c9                            664
    x50       c18                           809
    MARK0001  'MARKER'                 'INTEND'
RHS
    rhs       c1                           1049
    rhs       c2                           1715
    rhs       c3                           1809
    rhs       c4                            875
    rhs       c5                           1349
    rhs       c6                            405
    rhs       c7                            994
    rhs       c8                           1345
    rhs       c9                            732
    rhs       c10                           937
    rhs       c11                           224
    rhs       c12                          1493
    rhs       c13                           921
    rhs       c14                           574
    rhs       c15                          1443
    rhs       c16                           898
    rhs       c17                           759
    rhs       c18                           855
    rhs       c19                           780
    rhs       c20                          2036
    rhs       c21                          1097
    rhs       c22                           524
    rhs       c23                          1518
    rhs       c24                          1219
    rhs       c25                           927
BOUNDS
 LI bnd       x1        0
 LI bnd       x2        0
 LI bnd       x3        0
 LI bnd       x4        0
 LI bnd       x5        0
 LI bnd       x6        0
 LI bnd       x7        0
 LI bnd       x8        0
 LI bnd       x9        0
 LI bnd       x10       0
 LI bnd       x11       0
 LI bnd       x12       0
 LI bnd       x13       0
 LI bnd       x14       0
 LI bnd       x15       0
 LI bnd       x16       0
 LI bnd       x17       0
 LI bnd       x18       0
 LI bnd       x19       0
 LI bnd       x20       0
 LI bnd       x21       0
 LI bnd       x22       0
 LI bnd       x23       0
 LI bnd       x24       0
 LI bnd       x25       0
 LI bnd       x26       0
 LI bnd       x27       0
 LI bnd       x28       0
 LI bnd       x29       0
 LI bnd       x30       0
 LI bnd       x31       0
 LI bnd       x32       0
 LI bnd       x33       0
 LI bnd       x34       0
 LI bnd       x35       0
 LI bnd       x36       0
 LI bnd       x37       0
 LI bnd       x38       0
 LI bnd       x39       0
 LI bnd       x40       0
 LI bnd       x41       0
 LI bnd       x42       0
 LI bnd       x43       0
 LI bnd       x44       0
 LI bnd       x45       0
 LI bnd       x46       0
 LI bnd       x47       0
 LI bnd       x48       0
 LI bnd       x49       0
 LI bnd       x50       0
ENDATA
